p cnf 345 636
11 12 13 0
-14 0
-11 15 0
-12 15 0
-11 -12 16 0
-13 17 0
-14 17 0
-13 -14 18 0
-15 19 0
-17 19 0
-15 -17 20 0
-16 21 0
-18 21 0
-16 -18 22 0
-20 23 0
-21 23 0
-20 -21 24 0
-23 0
25 26 0
-25 -26 0
27 28 0
-27 -28 0
29 30 0
-29 -30 0
31 32 33 0
-34 0
-31 35 0
-32 35 0
-31 -32 36 0
-33 37 0
-34 37 0
-33 -34 38 0
-35 39 0
-37 39 0
-35 -37 40 0
-36 41 0
-38 41 0
-36 -38 42 0
-40 43 0
-41 43 0
-40 -41 44 0
-43 0
45 0
-45 46 0
-10 46 0
-45 -10 47 0
-7 48 0
-6 48 0
-7 -6 49 0
-1 48 0
-7 -1 49 0
-6 -1 49 0
-7 -6 -1 50 0
-46 51 0
-47 52 0
-48 51 0
-49 52 0
-50 53 0
-46 -48 52 0
-46 -49 53 0
-46 -50 54 0
-47 -48 53 0
-47 -49 54 0
-47 -50 55 0
12 56 0
-52 56 0
-54 57 0
12 -52 57 0
12 -54 58 0
13 59 0
-57 59 0
13 -57 60 0
-60 0
61 0
-61 62 0
10 62 0
-61 10 63 0
7 64 0
6 64 0
7 6 65 0
1 64 0
7 1 65 0
6 1 65 0
7 6 1 66 0
-62 67 0
-63 68 0
-64 67 0
-65 68 0
-66 69 0
-62 -64 68 0
-62 -65 69 0
-62 -66 70 0
-63 -64 69 0
-63 -65 70 0
-63 -66 71 0
-61 72 0
-12 72 0
-61 -12 73 0
-72 74 0
-73 75 0
-68 74 0
-70 75 0
-72 -68 75 0
-72 -70 76 0
-73 -68 76 0
-73 -70 77 0
-77 0
-13 78 0
-75 78 0
-77 79 0
-13 -75 79 0
-79 0
80 0
-26 81 0
-25 81 0
-26 -25 82 0
9 81 0
-26 9 82 0
-25 9 82 0
-26 -25 9 83 0
7 84 0
6 84 0
7 6 85 0
2 84 0
7 2 85 0
6 2 85 0
7 6 2 86 0
8 87 0
-84 87 0
-85 88 0
-86 89 0
8 -84 88 0
8 -85 89 0
8 -86 90 0
-81 91 0
-82 92 0
-83 93 0
-87 91 0
-88 92 0
-89 93 0
-90 94 0
-81 -87 92 0
-81 -88 93 0
-81 -89 94 0
-81 -90 95 0
-82 -87 93 0
-82 -88 94 0
-82 -89 95 0
-82 -90 96 0
-83 -87 94 0
-83 -88 95 0
-83 -89 96 0
-96 0
-26 97 0
-92 97 0
-94 98 0
-96 99 0
-26 -92 98 0
-26 -94 99 0
-99 0
100 0
-100 101 0
26 101 0
-100 26 102 0
25 101 0
-100 25 102 0
26 25 102 0
-100 26 25 103 0
-9 104 0
-8 104 0
-9 -8 105 0
-7 106 0
-6 106 0
-7 -6 107 0
-2 106 0
-7 -2 107 0
-6 -2 107 0
-7 -6 -2 108 0
-104 109 0
-105 110 0
-106 109 0
-107 110 0
-108 111 0
-104 -106 110 0
-104 -107 111 0
-104 -108 112 0
-105 -106 111 0
-105 -107 112 0
-105 -108 113 0
-101 114 0
-102 115 0
-103 116 0
-109 114 0
-110 115 0
-111 116 0
-112 117 0
-113 118 0
-101 -109 115 0
-101 -110 116 0
-101 -111 117 0
-101 -112 118 0
-101 -113 119 0
-102 -109 116 0
-102 -110 117 0
-102 -111 118 0
-102 -112 119 0
-103 -109 117 0
-103 -110 118 0
-103 -111 119 0
-119 0
26 120 0
-115 120 0
-117 121 0
-119 122 0
26 -115 121 0
26 -117 122 0
-122 0
123 0
-123 124 0
28 124 0
-123 28 125 0
27 124 0
-123 27 125 0
28 27 125 0
-123 28 27 126 0
-10 127 0
-7 127 0
-10 -7 128 0
-3 127 0
-10 -3 128 0
-7 -3 128 0
-10 -7 -3 129 0
-124 130 0
-125 131 0
-126 132 0
-127 130 0
-128 131 0
-129 132 0
-124 -127 131 0
-124 -128 132 0
-124 -129 133 0
-125 -127 132 0
-125 -128 133 0
-125 -129 134 0
-126 -127 133 0
-126 -128 134 0
-126 -129 135 0
-135 0
28 136 0
-131 136 0
-133 137 0
-135 138 0
28 -131 137 0
28 -133 138 0
-138 0
139 0
-28 140 0
-27 140 0
-28 -27 141 0
10 142 0
7 142 0
10 7 143 0
3 142 0
10 3 143 0
7 3 143 0
10 7 3 144 0
-140 145 0
-141 146 0
-142 145 0
-143 146 0
-144 147 0
-140 -142 146 0
-140 -143 147 0
-140 -144 148 0
-141 -142 147 0
-141 -143 148 0
-148 0
-28 149 0
-146 149 0
-148 150 0
-28 -146 150 0
-150 0
151 0
-151 152 0
-30 152 0
-151 -30 153 0
-29 152 0
-151 -29 153 0
-30 -29 153 0
-151 -30 -29 154 0
7 155 0
6 155 0
7 6 156 0
4 155 0
7 4 156 0
6 4 156 0
7 6 4 157 0
10 158 0
-155 158 0
-156 159 0
-157 160 0
10 -155 159 0
10 -156 160 0
10 -157 161 0
-152 162 0
-153 163 0
-154 164 0
-158 162 0
-159 163 0
-160 164 0
-161 165 0
-152 -158 163 0
-152 -159 164 0
-152 -160 165 0
-152 -161 166 0
-153 -158 164 0
-153 -159 165 0
-153 -160 166 0
-153 -161 167 0
-154 -158 165 0
-154 -159 166 0
-154 -160 167 0
-167 0
-30 168 0
-163 168 0
-165 169 0
-167 170 0
-30 -163 169 0
-30 -165 170 0
-170 0
171 0
-171 172 0
30 172 0
-171 30 173 0
29 172 0
-171 29 173 0
30 29 173 0
-171 30 29 174 0
-7 175 0
-6 175 0
-7 -6 176 0
-4 175 0
-7 -4 176 0
-6 -4 176 0
-7 -6 -4 177 0
-10 178 0
-175 178 0
-176 179 0
-177 180 0
-10 -175 179 0
-10 -176 180 0
-10 -177 181 0
-172 182 0
-173 183 0
-174 184 0
-178 182 0
-179 183 0
-180 184 0
-181 185 0
-172 -178 183 0
-172 -179 184 0
-172 -180 185 0
-172 -181 186 0
-173 -178 184 0
-173 -179 185 0
-173 -180 186 0
-173 -181 187 0
-174 -178 185 0
-174 -179 186 0
-174 -180 187 0
-187 0
30 188 0
-183 188 0
-185 189 0
-187 190 0
30 -183 189 0
30 -185 190 0
-190 0
191 0
-191 192 0
-10 192 0
-191 -10 193 0
-9 192 0
-191 -9 193 0
-10 -9 193 0
-191 -10 -9 194 0
-8 195 0
-6 195 0
-8 -6 196 0
-5 195 0
-8 -5 196 0
-6 -5 196 0
-8 -6 -5 197 0
-192 198 0
-193 199 0
-194 200 0
-195 198 0
-196 199 0
-197 200 0
-192 -195 199 0
-192 -196 200 0
-192 -197 201 0
-193 -195 200 0
-193 -196 201 0
-193 -197 202 0
-194 -195 201 0
-194 -196 202 0
-194 -197 203 0
32 204 0
-199 204 0
-201 205 0
-203 206 0
32 -199 205 0
32 -201 206 0
32 -203 207 0
-207 0
33 208 0
-205 208 0
-207 209 0
33 -205 209 0
-209 0
210 0
10 211 0
9 211 0
10 9 212 0
8 213 0
6 213 0
8 6 214 0
5 213 0
8 5 214 0
6 5 214 0
8 6 5 215 0
-211 216 0
-212 217 0
-213 216 0
-214 217 0
-215 218 0
-211 -213 217 0
-211 -214 218 0
-211 -215 219 0
-212 -213 218 0
-212 -214 219 0
-212 -215 220 0
-210 221 0
-32 221 0
-210 -32 222 0
-221 223 0
-222 224 0
-217 223 0
-219 224 0
-221 -217 224 0
-221 -219 225 0
-222 -217 225 0
-222 -219 226 0
-226 0
-33 227 0
-224 227 0
-226 228 0
-33 -224 228 0
-228 0
-229 0
-1 230 0
-2 230 0
-1 -2 231 0
-3 232 0
-4 232 0
-3 -4 233 0
-230 234 0
-232 234 0
-230 -232 235 0
-231 236 0
-233 236 0
-231 -233 237 0
-235 238 0
-236 238 0
-235 -236 239 0
-5 240 0
-6 240 0
-5 -6 241 0
-7 242 0
-8 242 0
-7 -8 243 0
-240 244 0
-242 244 0
-240 -242 245 0
-241 246 0
-243 246 0
-241 -243 247 0
-245 248 0
-246 248 0
-245 -246 249 0
-234 250 0
-244 250 0
-234 -244 251 0
-239 252 0
-249 252 0
-239 -249 253 0
-251 254 0
-252 254 0
-251 -252 255 0
-238 256 0
-248 256 0
-238 -248 257 0
-237 258 0
-247 258 0
-237 -247 259 0
-257 260 0
-258 260 0
-257 -258 261 0
-254 262 0
-256 262 0
-254 -256 263 0
-255 264 0
-260 264 0
-255 -260 265 0
-253 266 0
-261 266 0
-253 -261 267 0
-9 268 0
-10 268 0
-9 -10 269 0
-229 270 0
-229 270 0
-229 -229 271 0
-268 272 0
-270 272 0
-268 -270 273 0
-269 274 0
-271 274 0
-269 -271 275 0
-273 276 0
-274 276 0
-273 -274 277 0
-229 278 0
-229 278 0
-229 -229 279 0
-229 280 0
-229 280 0
-229 -229 281 0
-278 282 0
-280 282 0
-278 -280 283 0
-279 284 0
-281 284 0
-279 -281 285 0
-283 286 0
-284 286 0
-283 -284 287 0
-272 288 0
-282 288 0
-272 -282 289 0
-277 290 0
-287 290 0
-277 -287 291 0
-289 292 0
-290 292 0
-289 -290 293 0
-276 294 0
-286 294 0
-276 -286 295 0
-275 296 0
-285 296 0
-275 -285 297 0
-295 298 0
-296 298 0
-295 -296 299 0
-292 300 0
-294 300 0
-292 -294 301 0
-293 302 0
-298 302 0
-293 -298 303 0
-291 304 0
-299 304 0
-291 -299 305 0
-250 306 0
-288 306 0
-250 -288 307 0
-265 308 0
-303 308 0
-265 -303 309 0
-307 310 0
-308 310 0
-307 -308 311 0
-263 312 0
-301 312 0
-263 -301 313 0
-267 314 0
-305 314 0
-267 -305 315 0
-313 316 0
-314 316 0
-313 -314 317 0
-310 318 0
-312 318 0
-310 -312 319 0
-311 320 0
-316 320 0
-311 -316 321 0
-262 322 0
-300 322 0
-262 -300 323 0
-266 324 0
-304 324 0
-266 -304 325 0
-323 326 0
-324 326 0
-323 -324 327 0
-264 328 0
-302 328 0
-264 -302 329 0
-259 330 0
-297 330 0
-259 -297 331 0
-329 332 0
-330 332 0
-329 -330 333 0
-326 334 0
-328 334 0
-326 -328 335 0
-327 336 0
-332 336 0
-327 -332 337 0
-318 338 0
-322 338 0
-318 -322 339 0
-319 340 0
-334 340 0
-319 -334 341 0
-320 342 0
-335 342 0
-320 -335 343 0
-321 344 0
-336 344 0
-321 -336 345 0
-341 0
